(set-info :smt-lib-version 2.6)
(set-logic BV)
(set-info :source |
Generated by: Mathias Preiner
Generated on: 2018-04-06
Application: Verification of invertibility conditions generated in [1].
Target solver: Boolector, CVC4, Z3
Publication:
[1] Solving Quantified Bit-Vectors using Invertibility Conditions
    Aina Niemetz, Mathias Preiner, Andrew Reynolds, Clark Barrett and Cesare Tinelli
    To appear in CAV 2018
|)
(set-info :license "https://creativecommons.org/licenses/by/4.0/")
(set-info :category "crafted")
(set-info :status unsat)
(declare-fun s () (_ BitVec 64))
(declare-fun t () (_ BitVec 64))

(define-fun udivtotal ((a (_ BitVec 64)) (b (_ BitVec 64))) (_ BitVec 64)
  (ite (= b (_ bv0 64)) (bvnot (_ bv0 64)) (bvudiv a b))
)
(define-fun uremtotal ((a (_ BitVec 64)) (b (_ BitVec 64))) (_ BitVec 64)
  (ite (= b (_ bv0 64)) a (bvurem a b))
)
(define-fun min () (_ BitVec 64)
  (bvnot (bvlshr (bvnot (_ bv0 64)) (_ bv1 64)))
)
(define-fun max () (_ BitVec 64)
  (bvnot min)
)

(define-fun SC ((s (_ BitVec 64)) (t (_ BitVec 64))) Bool
(not (and (bvult t (bvnot t)) (bvslt s t)))
)

(assert
 (not
  (and
  (=> (SC s t) (exists ((x (_ BitVec 64))) (bvsge (bvashr s x) t)))
  (=> (exists ((x (_ BitVec 64))) (bvsge (bvashr s x) t)) (SC s t))
  )
 )
)
(check-sat)
(exit)
